(declare-fun args_1_8 () (_ BitVec 8))
(declare-fun args_3_8 () (_ BitVec 8))
(declare-fun args_2_8 () (_ BitVec 8))
(declare-fun args_0_8 () (_ BitVec 8))
(assert (let ((a!1 (concat (concat (ite (= #x00 args_3_8) #b1 #b0) #b1)
                   (ite (= #x00 args_2_8) #b1 #b0)))
      (a!4 (concat (concat (ite (= #x00 args_2_8) #b1 #b0) #b101)
                   (ite (= #x00 args_0_8) #b1 #b0)))
      (a!6 (bvadd #b111 (concat #b01 (ite (= #x00 args_0_8) #b1 #b0))))
      (a!9 (concat (concat #b111111111111111111111111111111111111111111111111111111111
                           (ite (= #x2f args_3_8) #b0 #b1))
                   #b1))
      (a!12 (concat (concat #b000000000000000011111111111111111111111100000000000000001
                            (ite (= #x00 args_3_8) #b1 #b0))
                    #b1))
      (a!17 (concat (concat #b1 (ite (= #x00 args_2_8) #b1 #b0)) #b101))
      (a!21 (bvadd #xf (concat #b101 (ite (= #x00 args_0_8) #b1 #b0))))
      (a!22 (bvadd #b11 (concat #b1 (ite (= #x00 args_0_8) #b1 #b0))))
      (a!24 (bvxor (bvadd #b1 (ite (= #x00 args_0_8) #b1 #b0))
                   (ite (= #x00 args_0_8) #b1 #b0)))
      (a!26 (bvule (bvadd #b10000011100011001011100
                          (concat (concat #b0000000000000 args_1_8) #b00))
                   #b10000011100011101011000))
      (a!27 (not (or (not (= #x3e args_1_8)) (= #x03 args_1_8)))))
(let ((a!2 (bvadd #b1111111
                  (concat (concat a!1 #b101) (ite (= #x00 args_0_8) #b1 #b0))))
      (a!5 (or (not (= #x2f args_2_8))
               (= ((_ extract 4 4) (bvadd #b11111 a!4))
                  (ite (= #x00 args_2_8) #b1 #b0))))
      (a!7 (ite (or (not (= #x2f args_1_8)) (= #b0 ((_ extract 2 2) a!6)))
                (ite (= #x2f args_0_8) #x000000000000003f #x0000000000000040)
                #x000000000000003d))
      (a!10 (concat (concat a!9 (ite (= #x2f args_2_8) #b0 #b1)) #b1))
      (a!13 (concat (concat a!12 (ite (= #x00 args_2_8) #b1 #b0)) #b101))
      (a!18 (bvadd #b111111 (concat a!17 (ite (= #x00 args_0_8) #b1 #b0))))
      (a!20 (bvnot (bvxor ((_ extract 4 4) (bvadd #b11111 a!4))
                          (ite (= #x00 args_2_8) #b1 #b0))))
      (a!28 (or (= #x04 args_1_8) (not (or (= #x3d args_1_8) a!27)))))
(let ((a!3 (or (not (= #x2f args_3_8))
               (= ((_ extract 6 6) a!2) (ite (= #x00 args_3_8) #b1 #b0))))
      (a!11 (concat (concat a!10 (ite (= #x2f args_1_8) #b0 #b1)) #b1))
      (a!14 (bvadd #xffffffffffffffff
                   (concat a!13 (ite (= #x00 args_0_8) #b1 #b0))))
      (a!16 (bvnot (bvxor ((_ extract 6 6) a!2) (ite (= #x00 args_3_8) #b1 #b0))))
      (a!29 (or (= #x05 args_1_8) (not (or (= #x3c args_1_8) (not a!28))))))
(let ((a!8 (bvadd #x0000000000000040
                  (bvmul #xffffffffffffffff
                         (ite a!3
                              (ite a!5 a!7 #x000000000000003b)
                              #x0000000000000039))))
      (a!15 (concat (concat (bvnot ((_ extract 63 48) a!14))
                            ((_ extract 47 24) a!14))
                    (bvnot ((_ extract 23 8) a!14))))
      (a!30 (or (not (or (= #x3b args_1_8) (not a!29)))
                (= #x15 args_1_8)
                (= #x2b args_1_8)
                (= #x14 args_1_8)
                (= #x2c args_1_8)
                (= #x13 args_1_8)
                (= #x2e args_1_8)
                (= #x12 args_1_8)
                (= #x2f args_1_8)
                (= #x11 args_1_8)
                (= #x30 args_1_8)
                (= #x10 args_1_8)
                (= #x31 args_1_8)
                (= #x0f args_1_8)
                (= #x32 args_1_8)
                (= #x0e args_1_8)
                (= #x33 args_1_8)
                (= #x0d args_1_8)
                (= #x34 args_1_8)
                (= #x0c args_1_8)
                (= #x35 args_1_8)
                (= #x0b args_1_8)
                (= #x36 args_1_8)
                (= #x0a args_1_8)
                (= #x37 args_1_8)
                (= #x09 args_1_8)
                (= #x38 args_1_8)
                (= #x08 args_1_8)
                (= #x39 args_1_8)
                (= #x07 args_1_8)
                (= #x06 args_1_8)
                (= #x3a args_1_8))))
(let ((a!19 (concat (concat (concat a!15 ((_ extract 7 7) a!14)) a!16)
                    ((_ extract 5 5) a!18)))
      (a!31 (or (= #x16 args_1_8) (not (or (= #x2a args_1_8) (not a!30))))))
(let ((a!23 (concat (concat (concat (concat a!19 a!20) ((_ extract 3 3) a!21))
                            (bvnot ((_ extract 2 2) a!6)))
                    ((_ extract 1 1) a!22)))
      (a!32 (or (= #x17 args_1_8) (not (or (= #x29 args_1_8) (not a!31))))))
(let ((a!25 (bvor (concat a!11 (ite (= #x2f args_0_8) #b0 #b1))
                  (concat a!23 (bvnot a!24))))
      (a!33 (or (not (or (= #x28 args_1_8) (not a!32)))
                (= #x19 args_1_8)
                (= #x18 args_1_8)
                (= #x27 args_1_8))))
(let ((a!34 (or (not (or (= #x26 args_1_8) (not a!33)))
                (= #x1b args_1_8)
                (= #x1a args_1_8)
                (= #x25 args_1_8))))
(let ((a!35 (or (not (or (= #x24 args_1_8) (not a!34)))
                (= #x1d args_1_8)
                (= #x1c args_1_8)
                (= #x23 args_1_8))))
(let ((a!36 (or (= #x1e args_1_8) (not (or (= #x22 args_1_8) (not a!35))))))
  (and (bvsge #x0000000000000006 a!8)
       (not (= #x0000000000000000 (bvnot a!25)))
       (not (= #x2d args_1_8))
       (not (= #x2d args_2_8))
       (not (= #x2d args_3_8))
       (= #b00 ((_ extract 7 6) args_1_8))
       (bvule #b0000000100 (concat args_1_8 #b00))
       a!26
       (not (= #x1f args_1_8))
       (not (= #x20 args_1_8))
       (or (= #x21 args_1_8) (not a!36))))))))))))))
(define-fun goal () (_ BitVec 64) (bvadd #x000000000041c65c
       (bvshl ((_ zero_extend 32) ((_ zero_extend 24) args_1_8))
              #x0000000000000002))) 
(minimize goal)
(check-sat)